c FILE /home/rafael/Documents/HappySet/MIHS/inputs/happygen/output/graph_scale_free_k3_p0.3_v100_20241127_083813.txt
c SOURCE This is a scale-free graph formed for the happy graph colouring problem.
c DESCRIPTION It was generated using the problem generator of Rhyd Lewis
c
c GRAPH STATS
c Seed                             = -434522181
c Number of Nodes                  = 100
c Number of colours k              = 3
c Number of pre-assignments        = 30
c Number of links per new node     = 5
c Density                          = 0.0979798
c 
c The degrees of nodes 1 to 100, respectively, are as follows 
c [39, 33, 31, 27, 26, 25, 23, 21, 20, 20, 19, 19, 16, 15, 14, 14, 14, 13, 13, 13, 13, 12, 12, 12, 11, 11, 
c  11, 11, 11, 10, 10, 9, 9, 9, 9, 9, 8, 8, 8, 8, 8, 8, 8, 7, 7, 7, 7, 7, 7, 7, 7, 
c  7, 7, 7, 7, 7, 7, 7, 6, 6, 6, 6, 6, 6, 6, 6, 6, 6, 6, 6, 6, 6, 6, 5, 5, 5, 
c  5, 5, 5, 5, 5, 5, 5, 5, 5, 5, 5, 5, 5, 5, 5, 5, 5, 5, 5, 5, 5, 5, 5, 5] 
c  
p edge 100 485 3
e 1 2
e 1 3
e 1 4
e 1 7
e 1 8
e 1 9
e 1 11
e 1 12
e 1 14
e 1 18
e 1 19
e 1 20
e 1 22
e 1 23
e 1 24
e 1 26
e 1 29
e 1 31
e 1 32
e 1 34
e 1 37
e 1 39
e 1 40
e 1 43
e 1 47
e 1 50
e 1 55
e 1 59
e 1 67
e 1 68
e 1 75
e 1 76
e 1 77
e 1 82
e 1 87
e 1 90
e 1 91
e 1 95
e 1 100
e 2 3
e 2 4
e 2 7
e 2 8
e 2 9
e 2 10
e 2 13
e 2 15
e 2 16
e 2 17
e 2 18
e 2 19
e 2 21
e 2 26
e 2 27
e 2 28
e 2 29
e 2 43
e 2 44
e 2 46
e 2 47
e 2 52
e 2 53
e 2 54
e 2 58
e 2 61
e 2 65
e 2 70
e 2 74
e 2 77
e 2 84
e 2 89
e 3 4
e 3 5
e 3 6
e 3 7
e 3 8
e 3 9
e 3 10
e 3 11
e 3 15
e 3 16
e 3 20
e 3 22
e 3 23
e 3 25
e 3 30
e 3 40
e 3 44
e 3 45
e 3 53
e 3 58
e 3 60
e 3 64
e 3 65
e 3 66
e 3 71
e 3 74
e 3 86
e 3 89
e 3 92
e 4 5
e 4 6
e 4 7
e 4 8
e 4 9
e 4 10
e 4 11
e 4 12
e 4 14
e 4 19
e 4 30
e 4 31
e 4 32
e 4 36
e 4 40
e 4 42
e 4 46
e 4 56
e 4 74
e 4 75
e 4 78
e 4 81
e 4 89
e 4 97
e 5 6
e 5 8
e 5 9
e 5 10
e 5 11
e 5 12
e 5 13
e 5 14
e 5 17
e 5 18
e 5 19
e 5 32
e 5 34
e 5 35
e 5 37
e 5 41
e 5 42
e 5 54
e 5 58
e 5 61
e 5 62
e 5 73
e 5 85
e 5 95
e 6 8
e 6 14
e 6 21
e 6 23
e 6 24
e 6 25
e 6 28
e 6 33
e 6 35
e 6 44
e 6 46
e 6 49
e 6 50
e 6 54
e 6 65
e 6 71
e 6 74
e 6 80
e 6 90
e 6 94
e 6 97
e 6 99
e 7 8
e 7 9
e 7 10
e 7 11
e 7 13
e 7 15
e 7 18
e 7 20
e 7 32
e 7 37
e 7 41
e 7 44
e 7 45
e 7 48
e 7 63
e 7 70
e 7 88
e 7 91
e 7 95
e 8 29
e 8 33
e 8 34
e 8 36
e 8 39
e 8 44
e 8 48
e 8 55
e 8 72
e 8 77
e 8 84
e 8 86
e 8 98
e 8 100
e 9 10
e 9 12
e 9 15
e 9 22
e 9 27
e 9 30
e 9 38
e 9 47
e 9 50
e 9 59
e 9 70
e 9 72
e 9 73
e 9 75
e 10 16
e 10 22
e 10 25
e 10 30
e 10 31
e 10 32
e 10 38
e 10 41
e 10 46
e 10 51
e 10 57
e 10 60
e 10 83
e 10 93
e 11 17
e 11 18
e 11 19
e 11 22
e 11 37
e 11 38
e 11 39
e 11 48
e 11 51
e 11 65
e 11 66
e 11 67
e 11 72
e 11 94
e 12 17
e 12 20
e 12 24
e 12 26
e 12 38
e 12 45
e 12 46
e 12 51
e 12 53
e 12 58
e 12 69
e 12 77
e 12 79
e 12 96
e 12 98
e 13 18
e 13 24
e 13 31
e 13 32
e 13 42
e 13 47
e 13 60
e 13 61
e 13 68
e 13 75
e 13 82
e 13 91
e 13 95
e 14 15
e 14 16
e 14 20
e 14 22
e 14 23
e 14 27
e 14 45
e 14 49
e 14 62
e 14 68
e 14 100
e 15 22
e 15 23
e 15 33
e 15 40
e 15 42
e 15 52
e 15 57
e 15 61
e 15 96
e 16 23
e 16 26
e 16 28
e 16 49
e 16 56
e 16 84
e 16 85
e 16 92
e 16 97
e 16 98
e 17 18
e 17 29
e 17 33
e 17 41
e 17 45
e 17 57
e 17 62
e 17 64
e 17 90
e 17 98
e 18 20
e 18 27
e 18 35
e 18 38
e 18 59
e 18 68
e 19 21
e 19 25
e 19 36
e 19 37
e 19 54
e 19 62
e 19 74
e 19 76
e 20 27
e 20 70
e 20 79
e 20 80
e 20 86
e 20 94
e 20 97
e 21 26
e 21 32
e 21 35
e 21 47
e 21 63
e 21 76
e 21 83
e 21 87
e 21 88
e 21 94
e 22 50
e 22 67
e 22 71
e 22 82
e 22 84
e 23 26
e 23 36
e 23 39
e 23 43
e 23 73
e 23 81
e 24 26
e 24 62
e 24 65
e 24 78
e 24 79
e 24 91
e 24 93
e 24 95
e 25 30
e 25 31
e 25 37
e 25 48
e 25 49
e 25 75
e 25 81
e 26 40
e 26 50
e 26 93
e 26 99
e 27 28
e 27 49
e 27 64
e 27 78
e 27 83
e 27 89
e 28 36
e 28 43
e 28 58
e 28 59
e 28 70
e 28 85
e 28 96
e 29 43
e 29 44
e 29 56
e 29 63
e 29 64
e 29 66
e 29 83
e 30 33
e 30 55
e 30 60
e 30 76
e 30 96
e 31 35
e 31 63
e 31 71
e 31 77
e 31 78
e 32 59
e 32 71
e 33 42
e 33 52
e 33 54
e 33 60
e 34 40
e 34 47
e 34 52
e 34 64
e 34 76
e 34 80
e 35 51
e 35 55
e 35 81
e 35 89
e 36 72
e 36 88
e 36 93
e 36 97
e 37 39
e 37 53
e 38 48
e 38 53
e 38 56
e 39 63
e 39 80
e 39 88
e 40 56
e 40 99
e 41 44
e 41 80
e 41 90
e 41 92
e 42 68
e 42 78
e 42 87
e 43 52
e 43 85
e 43 96
e 45 57
e 45 66
e 46 59
e 46 86
e 47 73
e 48 61
e 48 73
e 49 67
e 49 92
e 50 69
e 50 85
e 51 61
e 51 66
e 51 81
e 52 79
e 52 91
e 53 79
e 53 93
e 54 69
e 54 86
e 55 57
e 55 62
e 55 90
e 56 69
e 56 83
e 57 82
e 57 100
e 58 94
e 58 99
e 60 87
e 63 69
e 64 82
e 65 67
e 66 87
e 67 84
e 68 88
e 69 92
e 70 100
e 71 72
e 72 98
e 73 99
n 4 2
n 7 2
n 10 2
n 18 2
n 23 2
n 29 3
n 31 2
n 32 2
n 33 2
n 47 2
n 49 3
n 54 2
n 62 1
n 65 1
n 66 3
n 72 3
n 73 2
n 75 2
n 76 3
n 79 3
n 81 2
n 84 2
n 85 2
n 86 2
n 89 2
n 92 3
n 93 2
n 94 2
n 95 2
n 96 1
